multiobj/instances/uniform/Ter.7.2.0.80.3.in
7 2
0 813 105 728 495 748 590 
813 0 377 463 378 892 566 
105 377 0 940 425 230 694 
728 463 940 0 205 867 517 
495 378 425 205 0 399 457 
748 892 230 867 399 0 171 
590 566 694 517 457 171 0 
0 60 745 306 389 61 842 
60 0 590 51 988 652 887 
745 590 0 599 624 672 346 
306 51 599 0 235 626 258 
389 988 624 235 0 172 566 
61 652 672 626 172 0 74 
842 887 346 258 566 74 0 
0 126 864 474 488 96 702 
126 0 608 8 999 635 909 
864 608 0 624 521 385 332 
474 8 624 0 527 604 277 
488 999 521 527 0 164 664 
96 635 385 604 164 0 3 
702 909 332 277 664 3 0 
