multiobj/solutions/Ter.7.2.0.80.3.out
1 2
6 2 4 3 0 1 5 
7876260 8417776 
